10
2147483647 54 37 90 39 86 53 85 84 69 
54 2147483647 1 47 98 50 45 63 21 26 
37 1 2147483647 79 50 92 20 93 38 67 
90 47 79 2147483647 96 78 46 34 29 98 
39 98 50 96 2147483647 84 58 20 66 37 
86 50 92 78 84 2147483647 97 70 91 12 
53 45 20 46 58 97 2147483647 89 35 12 
85 63 93 34 20 70 89 2147483647 89 1 
84 21 38 29 66 91 35 89 2147483647 78 
69 26 67 98 37 12 12 1 78 2147483647 
